29 121
6 18
16 20
7 17
8 9
12 25
0 5
11 14
13 17
15 23
3 6
3 15
14 24
0 16
11 16
9 28
13 28
16 24
12 20
5 23
1 10
13 21
16 17
16 26
7 23
6 27
3 10
12 22
0 2
14 28
1 12
19 27
16 19
16 28
12 15
5 9
23 24
1 5
1 14
13 16
24 25
16 21
3 14
4 13
3 23
2 6
8 22
0 18
10 28
7 11
16 23
15 27
5 13
4 15
12 28
8 15
10 12
1 9
0 11
17 27
8 24
9 23
15 20
6 17
4 8
12 21
14 18
4 17
0 4
8 17
1 11
5 27
19 26
10 23
9 25
0 22
2 28
6 10
6 19
6 28
18 27
12 23
0 6
5 20
1 13
11 15
2 12
10 25
9 27
11 24
6 12
13 27
4 21
0 8
5 22
19 21
11 17
13 20
6 14
7 13
6 23
0 1
3 27
2 7
9 22
0 19
0 28
6 7
26 28
6 25
16 27
7 24
4 7
5 8
0 3
3 20
2 9
19 25
5 26
9 24
17 28
6 9
